language Essence 1.3

letting class be
        function(1 --> 3, 2 --> 4, 3 --> 1, 4 --> 4, 5 --> 2, 6 --> 1, 7 --> 4, 8 --> 3, 9 --> 3, 10 --> 2, 11 --> 2,
                 12 --> 1, 13 --> 4, 14 --> 2, 15 --> 4, 16 --> 4, 17 --> 4, 18 --> 4, 19 --> 1, 20 --> 1)
letting deck_length be 36
letting deck_width be 74
letting length be
        function(1 --> 19, 2 --> 25, 3 --> 7, 4 --> 32, 5 --> 22, 6 --> 32, 7 --> 25, 8 --> 15, 9 --> 1, 10 --> 16,
                 11 --> 23, 12 --> 22, 13 --> 31, 14 --> 9, 15 --> 28, 16 --> 13, 17 --> 7, 18 --> 20, 19 --> 14,
                 20 --> 28)
letting n_classes be 4
letting n_containers be 20
letting separation be function()
letting width be
        function(1 --> 1, 2 --> 6, 3 --> 1, 4 --> 10, 5 --> 1, 6 --> 16, 7 --> 5, 8 --> 1, 9 --> 5, 10 --> 1, 11 --> 1,
                 12 --> 6, 13 --> 2, 14 --> 2, 15 --> 4, 16 --> 1, 17 --> 1, 18 --> 1, 19 --> 1, 20 --> 4)
